Set parameter Username
Academic license - for non-commercial use only - expires 2023-12-01
Set parameter TimeLimit to value 3600
Set parameter MIPGap to value 1e-06
Set parameter Threads to value 1
Set parameter NodefileStart to value 0.5
Set parameter NodefileDir to value "/home/jossian/Downloads"
Set parameter MIPGap to value 1e-06
Set parameter Threads to value 1
Set parameter NodefileDir to value "/home/jossian/Downloads"
Set parameter NodefileStart to value 0.5
Set parameter TimeLimit to value 3600
Gurobi Optimizer version 10.0.0 build v10.0.0rc2 (linux64)

CPU model: Intel(R) Core(TM) i5-1035G1 CPU @ 1.00GHz, instruction set [SSE2|AVX|AVX2|AVX512]
Thread count: 4 physical cores, 8 logical processors, using up to 1 threads

Optimize a model with 134551 rows, 45150 columns and 314250 nonzeros
Model fingerprint: 0xf377667b
Variable types: 0 continuous, 45150 integer (45150 binary)
Coefficient statistics:
  Matrix range     [1e+00, 2e+01]
  Objective range  [1e+00, 5e+01]
  Bounds range     [0e+00, 0e+00]
  RHS range        [1e+00, 9e+02]
Found heuristic solution: objective 16.0000000
Presolve removed 112104 rows and 33627 columns
Presolve time: 1.02s
Presolved: 22447 rows, 11523 columns, 45192 nonzeros
Variable types: 0 continuous, 11523 integer (11523 binary)
Found heuristic solution: objective 19347.000000

Root relaxation: objective 6.722093e+04, 11143 iterations, 0.82 seconds (1.20 work units)

    Nodes    |    Current Node    |     Objective Bounds      |     Work
 Expl Unexpl |  Obj  Depth IntInf | Incumbent    BestBd   Gap | It/Node Time

     0     0 67220.9310    0 1594 19347.0000 67220.9310   247%     -    1s
H    0     0                    65293.000000 67220.9310  2.95%     -    1s
     0     0 67216.9222    0  695 65293.0000 67216.9222  2.95%     -    2s
H    0     0                    66768.000000 67216.9222  0.67%     -    2s
H    0     0                    67171.000000 67216.9222  0.07%     -    2s
     0     0 67211.5414    0 1526 67171.0000 67211.5414  0.06%     -    2s
     0     0 67211.5414    0  677 67171.0000 67211.5414  0.06%     -    2s
     0     0 67209.4669    0  246 67171.0000 67209.4669  0.06%     -    2s
     0     0 67209.4669    0  444 67171.0000 67209.4669  0.06%     -    2s
     0     0 67207.2079    0  161 67171.0000 67207.2079  0.05%     -    2s
     0     0 67207.2079    0  384 67171.0000 67207.2079  0.05%     -    2s
     0     0 67206.8590    0  129 67171.0000 67206.8590  0.05%     -    2s
     0     0 67202.8241    0  347 67171.0000 67202.8241  0.05%     -    2s
     0     0 67202.7875    0  369 67171.0000 67202.7875  0.05%     -    2s
     0     0 67202.7586    0  238 67171.0000 67202.7586  0.05%     -    2s
     0     0 67202.5815    0  370 67171.0000 67202.5815  0.05%     -    2s
     0     0 67202.5788    0  370 67171.0000 67202.5788  0.05%     -    2s
     0     0 67202.2317    0  370 67171.0000 67202.2317  0.05%     -    2s
     0     0 67202.2317    0  370 67171.0000 67202.2317  0.05%     -    2s
     0     0 67202.2317    0   73 67171.0000 67202.2317  0.05%     -    2s
     0     0 67202.2317    0   68 67171.0000 67202.2317  0.05%     -    2s
     0     0 67201.6798    0   70 67171.0000 67201.6798  0.05%     -    2s
     0     0 67196.4617    0   55 67171.0000 67196.4617  0.04%     -    2s
     0     0 67196.3664    0   55 67171.0000 67196.3664  0.04%     -    2s
     0     0 67196.2688    0   55 67171.0000 67196.2688  0.04%     -    2s
     0     0 67194.9289    0  122 67171.0000 67194.9289  0.04%     -    2s
     0     0 67194.9016    0   53 67171.0000 67194.9016  0.04%     -    2s
     0     0 67194.6576    0   52 67171.0000 67194.6576  0.04%     -    2s
     0     0 67194.6556    0   53 67171.0000 67194.6556  0.04%     -    2s
     0     0 67194.3495    0   84 67171.0000 67194.3495  0.03%     -    2s
     0     0 67194.3039    0   74 67171.0000 67194.3039  0.03%     -    2s
     0     0 67194.2156    0   74 67171.0000 67194.2156  0.03%     -    2s
     0     0 67194.0722    0   75 67171.0000 67194.0722  0.03%     -    2s
     0     0 67194.0722    0   39 67171.0000 67194.0722  0.03%     -    2s
     0     0 67194.0722    0   34 67171.0000 67194.0722  0.03%     -    2s
     0     0 67193.4755    0   32 67171.0000 67193.4755  0.03%     -    2s
     0     0 67193.1998    0   38 67171.0000 67193.1998  0.03%     -    2s
     0     0 67192.1901    0   37 67171.0000 67192.1901  0.03%     -    2s
     0     0 67191.9328    0   41 67171.0000 67191.9328  0.03%     -    2s
     0     0 67191.9074    0   42 67171.0000 67191.9074  0.03%     -    2s
     0     0 67191.5304    0   37 67171.0000 67191.5304  0.03%     -    2s
     0     0 67191.2313    0   37 67171.0000 67191.2313  0.03%     -    2s
     0     0 67191.2117    0   37 67171.0000 67191.2117  0.03%     -    2s
     0     0 67189.6511    0   38 67171.0000 67189.6511  0.03%     -    2s
     0     0 67189.6167    0   38 67171.0000 67189.6167  0.03%     -    2s
     0     0 67189.0440    0   35 67171.0000 67189.0440  0.03%     -    2s
     0     0 67189.0440    0   19 67171.0000 67189.0440  0.03%     -    2s
     0     0 67189.0440    0   21 67171.0000 67189.0440  0.03%     -    2s
     0     0 67189.0440    0   22 67171.0000 67189.0440  0.03%     -    2s
     0     0 67188.5878    0   22 67171.0000 67188.5878  0.03%     -    2s
     0     0 67188.1977    0   23 67171.0000 67188.1977  0.03%     -    2s
     0     0 67181.0966    0   23 67171.0000 67181.0966  0.02%     -    2s
     0     0 67181.0891    0   23 67171.0000 67181.0891  0.02%     -    2s
     0     0 67179.3921    0   20 67171.0000 67179.3921  0.01%     -    2s
     0     0 67179.3260    0   20 67171.0000 67179.3260  0.01%     -    2s
     0     0 67178.9489    0   22 67171.0000 67178.9489  0.01%     -    2s
     0     0 67177.5972    0   20 67171.0000 67177.5972  0.01%     -    2s
     0     0 67176.3160    0   17 67171.0000 67176.3160  0.01%     -    2s
     0     0 67175.9387    0   20 67171.0000 67175.9387  0.01%     -    2s
     0     0 67175.7500    0   20 67171.0000 67175.7500  0.01%     -    2s
     0     0 67175.7429    0   20 67171.0000 67175.7429  0.01%     -    2s
     0     0 67175.5331    0   19 67171.0000 67175.5331  0.01%     -    2s
     0     0 67175.2432    0   20 67171.0000 67175.2432  0.01%     -    2s
     0     0 67175.1381    0   20 67171.0000 67175.1381  0.01%     -    2s
     0     0 67175.1031    0   21 67171.0000 67175.1031  0.01%     -    2s

Cutting planes:
  MIR: 6
  StrongCG: 1
  RLT: 6

Explored 1 nodes (17205 simplex iterations) in 2.96 seconds (3.81 work units)
Thread count was 1 (of 8 available processors)

Solution count 5: 67171 66768 65293 ... 16

Optimal solution found (tolerance 1.00e-06)
Best objective 6.717100000000e+04, best bound 6.717100000000e+04, gap 0.0000%

User-callback calls 1041, time in user-callback 0.00 sec
